(declare-const a Real)
(declare-const b Real)
(declare-const c Real)
(assert (= (+ a b c) 3))
(assert (> a 0))
(assert (> b 0))
(assert (> c 0))
(assert (not (<= (+ (* -6225920 a (pow c 4)) (* -6225920 b (pow a 4)) (* -6056960 c (pow b 4)) (* -1245184 a (pow b 4)) (* -1245184 b (pow c 4)) (* -1146880 (pow a 2) (pow c 3)) (* -1146880 (pow a 3) (pow b 2)) (* -1076224 c (pow a 4)) (* 819200 (pow b 3) (pow c 2)) (* 1146880 (pow a 2) (pow b 3)) (* 1146880 (pow b 2) (pow c 3)) (* 3112960 (pow a 3) (pow c 2)) (* 8640 c (pow (+ (* 2 a) (* 2 b)) 2) (+ (pow a 2) (pow b 2))) (* 5505024 a b (pow c 3)) (* 6180864 a c (pow b 3)) (* 6180864 b c (pow a 3))) 0)))
(check-sat)
(get-model)
(exit)